W=7;
H=7;

MAX_TIME=W*H;
MAX_TRACKS=16;

TARGET=(7,7);

TRAINS=[(7,1,RIGHT),(1,1,RIGHT),(1,7,LEFT),(4,4,RIGHT)];
DECOYS=[];

INIT_POS=[
(1,1,STRAIGHT_RL),
(1,2,STRAIGHT_RL),
(1,6,STRAIGHT_RL),
(1,7,STRAIGHT_RL),
(3,4,STRAIGHT_RL),
(4,3,STRAIGHT_TD),
(4,4,STRAIGHT_RL),
(4,6,CORNER_DL),
(5,4,STRAIGHT_RL),
(7,1,STRAIGHT_RL),
(7,2,STRAIGHT_RL),
(7,4,STRAIGHT_RL),
(7,5,STRAIGHT_RL),
(7,6,STRAIGHT_RL),
(7,7,STRAIGHT_RL),
];
TUNNEL_PAIRS=[];

GATES=[
(1,2,2,false),
(1,6,3,false),
(7,2,1,false),
(7,4,1,true),
(7,5,2,true),
(7,6,3,true),
];
ACTIVATIONS=[
(3,4,1),
(4,3,2),
(5,4,3),
];

DSWITCHES=[];
STATIONS=[];
